(declare-fun e () String)
(declare-fun c () String)
(declare-fun b () String)
(declare-fun d () String)
(declare-fun f () String)
(declare-fun h () String)
(assert (= (str.++ e "hcb") b))
(assert (= (str.++ "c" h) (str.++ b "c" c d "b")))
(assert (= (str.++ e "gbcg") f))

(check-sat)
